TCS_Benchmarks/redos_fix/corpus3_output_distinct_728_727_161_0.txt
(.*)(\s+)
(.*)("\s+Owner=".*"\s+Keyword=".*")(\s+)